(set-info :smt-lib-version 2.6)
(set-logic QF_NIA)
(set-info :source |
 more info in 'N. P. Lopes, L. Aksoy, V. Manquinho, J. Monteiro.
 Optimally Solving the MCM Problem Using Pseudo-Boolean Satisfiability.
 Technical Report RT/43/2010, INESC-ID, Nov. 2010'. |)
(set-info :category "industrial")
(set-info :status unknown)
(declare-fun X0 () Int)
(declare-fun X1 () Int)
(declare-fun X2 () Int)
(declare-fun X3 () Int)
(declare-fun X4 () Int)
(declare-fun X5 () Int)
(declare-fun X6 () Int)
(declare-fun X7 () Int)
(declare-fun X8 () Int)
(declare-fun X9 () Int)
(declare-fun X10 () Int)
(declare-fun S0 () Int)
(declare-fun S1 () Int)
(declare-fun S2 () Int)
(declare-fun S3 () Int)
(declare-fun S4 () Int)
(declare-fun S5 () Int)
(declare-fun S6 () Int)
(declare-fun S7 () Int)
(declare-fun S8 () Int)
(declare-fun S9 () Int)
(declare-fun S10 () Int)
(declare-fun S11 () Int)
(declare-fun S12 () Int)
(declare-fun S13 () Int)
(declare-fun S14 () Int)
(declare-fun S15 () Int)
(declare-fun S16 () Int)
(declare-fun S17 () Int)
(declare-fun S18 () Int)
(declare-fun S19 () Int)
(declare-fun S20 () Int)
(declare-fun S21 () Int)
(define-fun power2 ((x Int)) Bool
  (or (= x 1024) (= x 512) (= x 256) (= x 128) (= x 64) (= x 32) (= x 16) (= x 8) (= x 4) (= x 2) (= x 1)))
(assert (or
 (= X0 (+ S0 S1))
 (= X0 (- S0 S1))
))
(assert (and (> X0 0) (< X0 2048) (power2 S0) (power2 S1)))
(assert (or
 (= X1 (+ (* X0 S2) S3))
 (= X1 (- (* X0 S2) S3))
 (= X1 (- S2 (* X0 S3)))
 (= X1 (+ (* X0 S2) (* X0 S3)))
 (= X1 (- (* X0 S2) (* X0 S3)))
))
(assert (and (> X1 0) (< X1 2048) (power2 S2) (power2 S3)))
(assert (or
 (= X2 (+ (* X0 S4) S5))
 (= X2 (- (* X0 S4) S5))
 (= X2 (- S4 (* X0 S5)))
 (= X2 (+ (* X0 S4) (* X0 S5)))
 (= X2 (- (* X0 S4) (* X0 S5)))
 (= X2 (+ (* X0 S4) (* X1 S5)))
 (= X2 (- (* X0 S4) (* X1 S5)))
 (= X2 (- (* X1 S4) (* X0 S5)))
 (= X2 (+ (* X1 S4) S5))
 (= X2 (- (* X1 S4) S5))
 (= X2 (- S4 (* X1 S5)))
 (= X2 (+ (* X1 S4) (* X1 S5)))
 (= X2 (- (* X1 S4) (* X1 S5)))
))
(assert (and (> X2 0) (< X2 2048) (power2 S4) (power2 S5)))
(assert (or
 (= X3 (+ (* X0 S6) S7))
 (= X3 (- (* X0 S6) S7))
 (= X3 (- S6 (* X0 S7)))
 (= X3 (+ (* X0 S6) (* X0 S7)))
 (= X3 (- (* X0 S6) (* X0 S7)))
 (= X3 (+ (* X0 S6) (* X1 S7)))
 (= X3 (- (* X0 S6) (* X1 S7)))
 (= X3 (- (* X1 S6) (* X0 S7)))
 (= X3 (+ (* X0 S6) (* X2 S7)))
 (= X3 (- (* X0 S6) (* X2 S7)))
 (= X3 (- (* X2 S6) (* X0 S7)))
 (= X3 (+ (* X1 S6) S7))
 (= X3 (- (* X1 S6) S7))
 (= X3 (- S6 (* X1 S7)))
 (= X3 (+ (* X1 S6) (* X1 S7)))
 (= X3 (- (* X1 S6) (* X1 S7)))
 (= X3 (+ (* X1 S6) (* X2 S7)))
 (= X3 (- (* X1 S6) (* X2 S7)))
 (= X3 (- (* X2 S6) (* X1 S7)))
 (= X3 (+ (* X2 S6) S7))
 (= X3 (- (* X2 S6) S7))
 (= X3 (- S6 (* X2 S7)))
 (= X3 (+ (* X2 S6) (* X2 S7)))
 (= X3 (- (* X2 S6) (* X2 S7)))
))
(assert (and (> X3 0) (< X3 2048) (power2 S6) (power2 S7)))
(assert (or
 (= X4 (+ (* X0 S8) S9))
 (= X4 (- (* X0 S8) S9))
 (= X4 (- S8 (* X0 S9)))
 (= X4 (+ (* X0 S8) (* X0 S9)))
 (= X4 (- (* X0 S8) (* X0 S9)))
 (= X4 (+ (* X0 S8) (* X1 S9)))
 (= X4 (- (* X0 S8) (* X1 S9)))
 (= X4 (- (* X1 S8) (* X0 S9)))
 (= X4 (+ (* X0 S8) (* X2 S9)))
 (= X4 (- (* X0 S8) (* X2 S9)))
 (= X4 (- (* X2 S8) (* X0 S9)))
 (= X4 (+ (* X0 S8) (* X3 S9)))
 (= X4 (- (* X0 S8) (* X3 S9)))
 (= X4 (- (* X3 S8) (* X0 S9)))
 (= X4 (+ (* X1 S8) S9))
 (= X4 (- (* X1 S8) S9))
 (= X4 (- S8 (* X1 S9)))
 (= X4 (+ (* X1 S8) (* X1 S9)))
 (= X4 (- (* X1 S8) (* X1 S9)))
 (= X4 (+ (* X1 S8) (* X2 S9)))
 (= X4 (- (* X1 S8) (* X2 S9)))
 (= X4 (- (* X2 S8) (* X1 S9)))
 (= X4 (+ (* X1 S8) (* X3 S9)))
 (= X4 (- (* X1 S8) (* X3 S9)))
 (= X4 (- (* X3 S8) (* X1 S9)))
 (= X4 (+ (* X2 S8) S9))
 (= X4 (- (* X2 S8) S9))
 (= X4 (- S8 (* X2 S9)))
 (= X4 (+ (* X2 S8) (* X2 S9)))
 (= X4 (- (* X2 S8) (* X2 S9)))
 (= X4 (+ (* X2 S8) (* X3 S9)))
 (= X4 (- (* X2 S8) (* X3 S9)))
 (= X4 (- (* X3 S8) (* X2 S9)))
 (= X4 (+ (* X3 S8) S9))
 (= X4 (- (* X3 S8) S9))
 (= X4 (- S8 (* X3 S9)))
 (= X4 (+ (* X3 S8) (* X3 S9)))
 (= X4 (- (* X3 S8) (* X3 S9)))
))
(assert (and (> X4 0) (< X4 2048) (power2 S8) (power2 S9)))
(assert (or
 (= X5 (+ (* X0 S10) S11))
 (= X5 (- (* X0 S10) S11))
 (= X5 (- S10 (* X0 S11)))
 (= X5 (+ (* X0 S10) (* X0 S11)))
 (= X5 (- (* X0 S10) (* X0 S11)))
 (= X5 (+ (* X0 S10) (* X1 S11)))
 (= X5 (- (* X0 S10) (* X1 S11)))
 (= X5 (- (* X1 S10) (* X0 S11)))
 (= X5 (+ (* X0 S10) (* X2 S11)))
 (= X5 (- (* X0 S10) (* X2 S11)))
 (= X5 (- (* X2 S10) (* X0 S11)))
 (= X5 (+ (* X0 S10) (* X3 S11)))
 (= X5 (- (* X0 S10) (* X3 S11)))
 (= X5 (- (* X3 S10) (* X0 S11)))
 (= X5 (+ (* X0 S10) (* X4 S11)))
 (= X5 (- (* X0 S10) (* X4 S11)))
 (= X5 (- (* X4 S10) (* X0 S11)))
 (= X5 (+ (* X1 S10) S11))
 (= X5 (- (* X1 S10) S11))
 (= X5 (- S10 (* X1 S11)))
 (= X5 (+ (* X1 S10) (* X1 S11)))
 (= X5 (- (* X1 S10) (* X1 S11)))
 (= X5 (+ (* X1 S10) (* X2 S11)))
 (= X5 (- (* X1 S10) (* X2 S11)))
 (= X5 (- (* X2 S10) (* X1 S11)))
 (= X5 (+ (* X1 S10) (* X3 S11)))
 (= X5 (- (* X1 S10) (* X3 S11)))
 (= X5 (- (* X3 S10) (* X1 S11)))
 (= X5 (+ (* X1 S10) (* X4 S11)))
 (= X5 (- (* X1 S10) (* X4 S11)))
 (= X5 (- (* X4 S10) (* X1 S11)))
 (= X5 (+ (* X2 S10) S11))
 (= X5 (- (* X2 S10) S11))
 (= X5 (- S10 (* X2 S11)))
 (= X5 (+ (* X2 S10) (* X2 S11)))
 (= X5 (- (* X2 S10) (* X2 S11)))
 (= X5 (+ (* X2 S10) (* X3 S11)))
 (= X5 (- (* X2 S10) (* X3 S11)))
 (= X5 (- (* X3 S10) (* X2 S11)))
 (= X5 (+ (* X2 S10) (* X4 S11)))
 (= X5 (- (* X2 S10) (* X4 S11)))
 (= X5 (- (* X4 S10) (* X2 S11)))
 (= X5 (+ (* X3 S10) S11))
 (= X5 (- (* X3 S10) S11))
 (= X5 (- S10 (* X3 S11)))
 (= X5 (+ (* X3 S10) (* X3 S11)))
 (= X5 (- (* X3 S10) (* X3 S11)))
 (= X5 (+ (* X3 S10) (* X4 S11)))
 (= X5 (- (* X3 S10) (* X4 S11)))
 (= X5 (- (* X4 S10) (* X3 S11)))
 (= X5 (+ (* X4 S10) S11))
 (= X5 (- (* X4 S10) S11))
 (= X5 (- S10 (* X4 S11)))
 (= X5 (+ (* X4 S10) (* X4 S11)))
 (= X5 (- (* X4 S10) (* X4 S11)))
))
(assert (and (> X5 0) (< X5 2048) (power2 S10) (power2 S11)))
(assert (or
 (= X6 (+ (* X0 S12) S13))
 (= X6 (- (* X0 S12) S13))
 (= X6 (- S12 (* X0 S13)))
 (= X6 (+ (* X0 S12) (* X0 S13)))
 (= X6 (- (* X0 S12) (* X0 S13)))
 (= X6 (+ (* X0 S12) (* X1 S13)))
 (= X6 (- (* X0 S12) (* X1 S13)))
 (= X6 (- (* X1 S12) (* X0 S13)))
 (= X6 (+ (* X0 S12) (* X2 S13)))
 (= X6 (- (* X0 S12) (* X2 S13)))
 (= X6 (- (* X2 S12) (* X0 S13)))
 (= X6 (+ (* X0 S12) (* X3 S13)))
 (= X6 (- (* X0 S12) (* X3 S13)))
 (= X6 (- (* X3 S12) (* X0 S13)))
 (= X6 (+ (* X0 S12) (* X4 S13)))
 (= X6 (- (* X0 S12) (* X4 S13)))
 (= X6 (- (* X4 S12) (* X0 S13)))
 (= X6 (+ (* X0 S12) (* X5 S13)))
 (= X6 (- (* X0 S12) (* X5 S13)))
 (= X6 (- (* X5 S12) (* X0 S13)))
 (= X6 (+ (* X1 S12) S13))
 (= X6 (- (* X1 S12) S13))
 (= X6 (- S12 (* X1 S13)))
 (= X6 (+ (* X1 S12) (* X1 S13)))
 (= X6 (- (* X1 S12) (* X1 S13)))
 (= X6 (+ (* X1 S12) (* X2 S13)))
 (= X6 (- (* X1 S12) (* X2 S13)))
 (= X6 (- (* X2 S12) (* X1 S13)))
 (= X6 (+ (* X1 S12) (* X3 S13)))
 (= X6 (- (* X1 S12) (* X3 S13)))
 (= X6 (- (* X3 S12) (* X1 S13)))
 (= X6 (+ (* X1 S12) (* X4 S13)))
 (= X6 (- (* X1 S12) (* X4 S13)))
 (= X6 (- (* X4 S12) (* X1 S13)))
 (= X6 (+ (* X1 S12) (* X5 S13)))
 (= X6 (- (* X1 S12) (* X5 S13)))
 (= X6 (- (* X5 S12) (* X1 S13)))
 (= X6 (+ (* X2 S12) S13))
 (= X6 (- (* X2 S12) S13))
 (= X6 (- S12 (* X2 S13)))
 (= X6 (+ (* X2 S12) (* X2 S13)))
 (= X6 (- (* X2 S12) (* X2 S13)))
 (= X6 (+ (* X2 S12) (* X3 S13)))
 (= X6 (- (* X2 S12) (* X3 S13)))
 (= X6 (- (* X3 S12) (* X2 S13)))
 (= X6 (+ (* X2 S12) (* X4 S13)))
 (= X6 (- (* X2 S12) (* X4 S13)))
 (= X6 (- (* X4 S12) (* X2 S13)))
 (= X6 (+ (* X2 S12) (* X5 S13)))
 (= X6 (- (* X2 S12) (* X5 S13)))
 (= X6 (- (* X5 S12) (* X2 S13)))
 (= X6 (+ (* X3 S12) S13))
 (= X6 (- (* X3 S12) S13))
 (= X6 (- S12 (* X3 S13)))
 (= X6 (+ (* X3 S12) (* X3 S13)))
 (= X6 (- (* X3 S12) (* X3 S13)))
 (= X6 (+ (* X3 S12) (* X4 S13)))
 (= X6 (- (* X3 S12) (* X4 S13)))
 (= X6 (- (* X4 S12) (* X3 S13)))
 (= X6 (+ (* X3 S12) (* X5 S13)))
 (= X6 (- (* X3 S12) (* X5 S13)))
 (= X6 (- (* X5 S12) (* X3 S13)))
 (= X6 (+ (* X4 S12) S13))
 (= X6 (- (* X4 S12) S13))
 (= X6 (- S12 (* X4 S13)))
 (= X6 (+ (* X4 S12) (* X4 S13)))
 (= X6 (- (* X4 S12) (* X4 S13)))
 (= X6 (+ (* X4 S12) (* X5 S13)))
 (= X6 (- (* X4 S12) (* X5 S13)))
 (= X6 (- (* X5 S12) (* X4 S13)))
 (= X6 (+ (* X5 S12) S13))
 (= X6 (- (* X5 S12) S13))
 (= X6 (- S12 (* X5 S13)))
 (= X6 (+ (* X5 S12) (* X5 S13)))
 (= X6 (- (* X5 S12) (* X5 S13)))
))
(assert (and (> X6 0) (< X6 2048) (power2 S12) (power2 S13)))
(assert (or
 (= X7 (+ (* X0 S14) S15))
 (= X7 (- (* X0 S14) S15))
 (= X7 (- S14 (* X0 S15)))
 (= X7 (+ (* X0 S14) (* X0 S15)))
 (= X7 (- (* X0 S14) (* X0 S15)))
 (= X7 (+ (* X0 S14) (* X1 S15)))
 (= X7 (- (* X0 S14) (* X1 S15)))
 (= X7 (- (* X1 S14) (* X0 S15)))
 (= X7 (+ (* X0 S14) (* X2 S15)))
 (= X7 (- (* X0 S14) (* X2 S15)))
 (= X7 (- (* X2 S14) (* X0 S15)))
 (= X7 (+ (* X0 S14) (* X3 S15)))
 (= X7 (- (* X0 S14) (* X3 S15)))
 (= X7 (- (* X3 S14) (* X0 S15)))
 (= X7 (+ (* X0 S14) (* X4 S15)))
 (= X7 (- (* X0 S14) (* X4 S15)))
 (= X7 (- (* X4 S14) (* X0 S15)))
 (= X7 (+ (* X0 S14) (* X5 S15)))
 (= X7 (- (* X0 S14) (* X5 S15)))
 (= X7 (- (* X5 S14) (* X0 S15)))
 (= X7 (+ (* X0 S14) (* X6 S15)))
 (= X7 (- (* X0 S14) (* X6 S15)))
 (= X7 (- (* X6 S14) (* X0 S15)))
 (= X7 (+ (* X1 S14) S15))
 (= X7 (- (* X1 S14) S15))
 (= X7 (- S14 (* X1 S15)))
 (= X7 (+ (* X1 S14) (* X1 S15)))
 (= X7 (- (* X1 S14) (* X1 S15)))
 (= X7 (+ (* X1 S14) (* X2 S15)))
 (= X7 (- (* X1 S14) (* X2 S15)))
 (= X7 (- (* X2 S14) (* X1 S15)))
 (= X7 (+ (* X1 S14) (* X3 S15)))
 (= X7 (- (* X1 S14) (* X3 S15)))
 (= X7 (- (* X3 S14) (* X1 S15)))
 (= X7 (+ (* X1 S14) (* X4 S15)))
 (= X7 (- (* X1 S14) (* X4 S15)))
 (= X7 (- (* X4 S14) (* X1 S15)))
 (= X7 (+ (* X1 S14) (* X5 S15)))
 (= X7 (- (* X1 S14) (* X5 S15)))
 (= X7 (- (* X5 S14) (* X1 S15)))
 (= X7 (+ (* X1 S14) (* X6 S15)))
 (= X7 (- (* X1 S14) (* X6 S15)))
 (= X7 (- (* X6 S14) (* X1 S15)))
 (= X7 (+ (* X2 S14) S15))
 (= X7 (- (* X2 S14) S15))
 (= X7 (- S14 (* X2 S15)))
 (= X7 (+ (* X2 S14) (* X2 S15)))
 (= X7 (- (* X2 S14) (* X2 S15)))
 (= X7 (+ (* X2 S14) (* X3 S15)))
 (= X7 (- (* X2 S14) (* X3 S15)))
 (= X7 (- (* X3 S14) (* X2 S15)))
 (= X7 (+ (* X2 S14) (* X4 S15)))
 (= X7 (- (* X2 S14) (* X4 S15)))
 (= X7 (- (* X4 S14) (* X2 S15)))
 (= X7 (+ (* X2 S14) (* X5 S15)))
 (= X7 (- (* X2 S14) (* X5 S15)))
 (= X7 (- (* X5 S14) (* X2 S15)))
 (= X7 (+ (* X2 S14) (* X6 S15)))
 (= X7 (- (* X2 S14) (* X6 S15)))
 (= X7 (- (* X6 S14) (* X2 S15)))
 (= X7 (+ (* X3 S14) S15))
 (= X7 (- (* X3 S14) S15))
 (= X7 (- S14 (* X3 S15)))
 (= X7 (+ (* X3 S14) (* X3 S15)))
 (= X7 (- (* X3 S14) (* X3 S15)))
 (= X7 (+ (* X3 S14) (* X4 S15)))
 (= X7 (- (* X3 S14) (* X4 S15)))
 (= X7 (- (* X4 S14) (* X3 S15)))
 (= X7 (+ (* X3 S14) (* X5 S15)))
 (= X7 (- (* X3 S14) (* X5 S15)))
 (= X7 (- (* X5 S14) (* X3 S15)))
 (= X7 (+ (* X3 S14) (* X6 S15)))
 (= X7 (- (* X3 S14) (* X6 S15)))
 (= X7 (- (* X6 S14) (* X3 S15)))
 (= X7 (+ (* X4 S14) S15))
 (= X7 (- (* X4 S14) S15))
 (= X7 (- S14 (* X4 S15)))
 (= X7 (+ (* X4 S14) (* X4 S15)))
 (= X7 (- (* X4 S14) (* X4 S15)))
 (= X7 (+ (* X4 S14) (* X5 S15)))
 (= X7 (- (* X4 S14) (* X5 S15)))
 (= X7 (- (* X5 S14) (* X4 S15)))
 (= X7 (+ (* X4 S14) (* X6 S15)))
 (= X7 (- (* X4 S14) (* X6 S15)))
 (= X7 (- (* X6 S14) (* X4 S15)))
 (= X7 (+ (* X5 S14) S15))
 (= X7 (- (* X5 S14) S15))
 (= X7 (- S14 (* X5 S15)))
 (= X7 (+ (* X5 S14) (* X5 S15)))
 (= X7 (- (* X5 S14) (* X5 S15)))
 (= X7 (+ (* X5 S14) (* X6 S15)))
 (= X7 (- (* X5 S14) (* X6 S15)))
 (= X7 (- (* X6 S14) (* X5 S15)))
 (= X7 (+ (* X6 S14) S15))
 (= X7 (- (* X6 S14) S15))
 (= X7 (- S14 (* X6 S15)))
 (= X7 (+ (* X6 S14) (* X6 S15)))
 (= X7 (- (* X6 S14) (* X6 S15)))
))
(assert (and (> X7 0) (< X7 2048) (power2 S14) (power2 S15)))
(assert (or
 (= X8 (+ (* X0 S16) S17))
 (= X8 (- (* X0 S16) S17))
 (= X8 (- S16 (* X0 S17)))
 (= X8 (+ (* X0 S16) (* X0 S17)))
 (= X8 (- (* X0 S16) (* X0 S17)))
 (= X8 (+ (* X0 S16) (* X1 S17)))
 (= X8 (- (* X0 S16) (* X1 S17)))
 (= X8 (- (* X1 S16) (* X0 S17)))
 (= X8 (+ (* X0 S16) (* X2 S17)))
 (= X8 (- (* X0 S16) (* X2 S17)))
 (= X8 (- (* X2 S16) (* X0 S17)))
 (= X8 (+ (* X0 S16) (* X3 S17)))
 (= X8 (- (* X0 S16) (* X3 S17)))
 (= X8 (- (* X3 S16) (* X0 S17)))
 (= X8 (+ (* X0 S16) (* X4 S17)))
 (= X8 (- (* X0 S16) (* X4 S17)))
 (= X8 (- (* X4 S16) (* X0 S17)))
 (= X8 (+ (* X0 S16) (* X5 S17)))
 (= X8 (- (* X0 S16) (* X5 S17)))
 (= X8 (- (* X5 S16) (* X0 S17)))
 (= X8 (+ (* X0 S16) (* X6 S17)))
 (= X8 (- (* X0 S16) (* X6 S17)))
 (= X8 (- (* X6 S16) (* X0 S17)))
 (= X8 (+ (* X0 S16) (* X7 S17)))
 (= X8 (- (* X0 S16) (* X7 S17)))
 (= X8 (- (* X7 S16) (* X0 S17)))
 (= X8 (+ (* X1 S16) S17))
 (= X8 (- (* X1 S16) S17))
 (= X8 (- S16 (* X1 S17)))
 (= X8 (+ (* X1 S16) (* X1 S17)))
 (= X8 (- (* X1 S16) (* X1 S17)))
 (= X8 (+ (* X1 S16) (* X2 S17)))
 (= X8 (- (* X1 S16) (* X2 S17)))
 (= X8 (- (* X2 S16) (* X1 S17)))
 (= X8 (+ (* X1 S16) (* X3 S17)))
 (= X8 (- (* X1 S16) (* X3 S17)))
 (= X8 (- (* X3 S16) (* X1 S17)))
 (= X8 (+ (* X1 S16) (* X4 S17)))
 (= X8 (- (* X1 S16) (* X4 S17)))
 (= X8 (- (* X4 S16) (* X1 S17)))
 (= X8 (+ (* X1 S16) (* X5 S17)))
 (= X8 (- (* X1 S16) (* X5 S17)))
 (= X8 (- (* X5 S16) (* X1 S17)))
 (= X8 (+ (* X1 S16) (* X6 S17)))
 (= X8 (- (* X1 S16) (* X6 S17)))
 (= X8 (- (* X6 S16) (* X1 S17)))
 (= X8 (+ (* X1 S16) (* X7 S17)))
 (= X8 (- (* X1 S16) (* X7 S17)))
 (= X8 (- (* X7 S16) (* X1 S17)))
 (= X8 (+ (* X2 S16) S17))
 (= X8 (- (* X2 S16) S17))
 (= X8 (- S16 (* X2 S17)))
 (= X8 (+ (* X2 S16) (* X2 S17)))
 (= X8 (- (* X2 S16) (* X2 S17)))
 (= X8 (+ (* X2 S16) (* X3 S17)))
 (= X8 (- (* X2 S16) (* X3 S17)))
 (= X8 (- (* X3 S16) (* X2 S17)))
 (= X8 (+ (* X2 S16) (* X4 S17)))
 (= X8 (- (* X2 S16) (* X4 S17)))
 (= X8 (- (* X4 S16) (* X2 S17)))
 (= X8 (+ (* X2 S16) (* X5 S17)))
 (= X8 (- (* X2 S16) (* X5 S17)))
 (= X8 (- (* X5 S16) (* X2 S17)))
 (= X8 (+ (* X2 S16) (* X6 S17)))
 (= X8 (- (* X2 S16) (* X6 S17)))
 (= X8 (- (* X6 S16) (* X2 S17)))
 (= X8 (+ (* X2 S16) (* X7 S17)))
 (= X8 (- (* X2 S16) (* X7 S17)))
 (= X8 (- (* X7 S16) (* X2 S17)))
 (= X8 (+ (* X3 S16) S17))
 (= X8 (- (* X3 S16) S17))
 (= X8 (- S16 (* X3 S17)))
 (= X8 (+ (* X3 S16) (* X3 S17)))
 (= X8 (- (* X3 S16) (* X3 S17)))
 (= X8 (+ (* X3 S16) (* X4 S17)))
 (= X8 (- (* X3 S16) (* X4 S17)))
 (= X8 (- (* X4 S16) (* X3 S17)))
 (= X8 (+ (* X3 S16) (* X5 S17)))
 (= X8 (- (* X3 S16) (* X5 S17)))
 (= X8 (- (* X5 S16) (* X3 S17)))
 (= X8 (+ (* X3 S16) (* X6 S17)))
 (= X8 (- (* X3 S16) (* X6 S17)))
 (= X8 (- (* X6 S16) (* X3 S17)))
 (= X8 (+ (* X3 S16) (* X7 S17)))
 (= X8 (- (* X3 S16) (* X7 S17)))
 (= X8 (- (* X7 S16) (* X3 S17)))
 (= X8 (+ (* X4 S16) S17))
 (= X8 (- (* X4 S16) S17))
 (= X8 (- S16 (* X4 S17)))
 (= X8 (+ (* X4 S16) (* X4 S17)))
 (= X8 (- (* X4 S16) (* X4 S17)))
 (= X8 (+ (* X4 S16) (* X5 S17)))
 (= X8 (- (* X4 S16) (* X5 S17)))
 (= X8 (- (* X5 S16) (* X4 S17)))
 (= X8 (+ (* X4 S16) (* X6 S17)))
 (= X8 (- (* X4 S16) (* X6 S17)))
 (= X8 (- (* X6 S16) (* X4 S17)))
 (= X8 (+ (* X4 S16) (* X7 S17)))
 (= X8 (- (* X4 S16) (* X7 S17)))
 (= X8 (- (* X7 S16) (* X4 S17)))
 (= X8 (+ (* X5 S16) S17))
 (= X8 (- (* X5 S16) S17))
 (= X8 (- S16 (* X5 S17)))
 (= X8 (+ (* X5 S16) (* X5 S17)))
 (= X8 (- (* X5 S16) (* X5 S17)))
 (= X8 (+ (* X5 S16) (* X6 S17)))
 (= X8 (- (* X5 S16) (* X6 S17)))
 (= X8 (- (* X6 S16) (* X5 S17)))
 (= X8 (+ (* X5 S16) (* X7 S17)))
 (= X8 (- (* X5 S16) (* X7 S17)))
 (= X8 (- (* X7 S16) (* X5 S17)))
 (= X8 (+ (* X6 S16) S17))
 (= X8 (- (* X6 S16) S17))
 (= X8 (- S16 (* X6 S17)))
 (= X8 (+ (* X6 S16) (* X6 S17)))
 (= X8 (- (* X6 S16) (* X6 S17)))
 (= X8 (+ (* X6 S16) (* X7 S17)))
 (= X8 (- (* X6 S16) (* X7 S17)))
 (= X8 (- (* X7 S16) (* X6 S17)))
 (= X8 (+ (* X7 S16) S17))
 (= X8 (- (* X7 S16) S17))
 (= X8 (- S16 (* X7 S17)))
 (= X8 (+ (* X7 S16) (* X7 S17)))
 (= X8 (- (* X7 S16) (* X7 S17)))
))
(assert (and (> X8 0) (< X8 2048) (power2 S16) (power2 S17)))
(assert (or
 (= X9 (+ (* X0 S18) S19))
 (= X9 (- (* X0 S18) S19))
 (= X9 (- S18 (* X0 S19)))
 (= X9 (+ (* X0 S18) (* X0 S19)))
 (= X9 (- (* X0 S18) (* X0 S19)))
 (= X9 (+ (* X0 S18) (* X1 S19)))
 (= X9 (- (* X0 S18) (* X1 S19)))
 (= X9 (- (* X1 S18) (* X0 S19)))
 (= X9 (+ (* X0 S18) (* X2 S19)))
 (= X9 (- (* X0 S18) (* X2 S19)))
 (= X9 (- (* X2 S18) (* X0 S19)))
 (= X9 (+ (* X0 S18) (* X3 S19)))
 (= X9 (- (* X0 S18) (* X3 S19)))
 (= X9 (- (* X3 S18) (* X0 S19)))
 (= X9 (+ (* X0 S18) (* X4 S19)))
 (= X9 (- (* X0 S18) (* X4 S19)))
 (= X9 (- (* X4 S18) (* X0 S19)))
 (= X9 (+ (* X0 S18) (* X5 S19)))
 (= X9 (- (* X0 S18) (* X5 S19)))
 (= X9 (- (* X5 S18) (* X0 S19)))
 (= X9 (+ (* X0 S18) (* X6 S19)))
 (= X9 (- (* X0 S18) (* X6 S19)))
 (= X9 (- (* X6 S18) (* X0 S19)))
 (= X9 (+ (* X0 S18) (* X7 S19)))
 (= X9 (- (* X0 S18) (* X7 S19)))
 (= X9 (- (* X7 S18) (* X0 S19)))
 (= X9 (+ (* X0 S18) (* X8 S19)))
 (= X9 (- (* X0 S18) (* X8 S19)))
 (= X9 (- (* X8 S18) (* X0 S19)))
 (= X9 (+ (* X1 S18) S19))
 (= X9 (- (* X1 S18) S19))
 (= X9 (- S18 (* X1 S19)))
 (= X9 (+ (* X1 S18) (* X1 S19)))
 (= X9 (- (* X1 S18) (* X1 S19)))
 (= X9 (+ (* X1 S18) (* X2 S19)))
 (= X9 (- (* X1 S18) (* X2 S19)))
 (= X9 (- (* X2 S18) (* X1 S19)))
 (= X9 (+ (* X1 S18) (* X3 S19)))
 (= X9 (- (* X1 S18) (* X3 S19)))
 (= X9 (- (* X3 S18) (* X1 S19)))
 (= X9 (+ (* X1 S18) (* X4 S19)))
 (= X9 (- (* X1 S18) (* X4 S19)))
 (= X9 (- (* X4 S18) (* X1 S19)))
 (= X9 (+ (* X1 S18) (* X5 S19)))
 (= X9 (- (* X1 S18) (* X5 S19)))
 (= X9 (- (* X5 S18) (* X1 S19)))
 (= X9 (+ (* X1 S18) (* X6 S19)))
 (= X9 (- (* X1 S18) (* X6 S19)))
 (= X9 (- (* X6 S18) (* X1 S19)))
 (= X9 (+ (* X1 S18) (* X7 S19)))
 (= X9 (- (* X1 S18) (* X7 S19)))
 (= X9 (- (* X7 S18) (* X1 S19)))
 (= X9 (+ (* X1 S18) (* X8 S19)))
 (= X9 (- (* X1 S18) (* X8 S19)))
 (= X9 (- (* X8 S18) (* X1 S19)))
 (= X9 (+ (* X2 S18) S19))
 (= X9 (- (* X2 S18) S19))
 (= X9 (- S18 (* X2 S19)))
 (= X9 (+ (* X2 S18) (* X2 S19)))
 (= X9 (- (* X2 S18) (* X2 S19)))
 (= X9 (+ (* X2 S18) (* X3 S19)))
 (= X9 (- (* X2 S18) (* X3 S19)))
 (= X9 (- (* X3 S18) (* X2 S19)))
 (= X9 (+ (* X2 S18) (* X4 S19)))
 (= X9 (- (* X2 S18) (* X4 S19)))
 (= X9 (- (* X4 S18) (* X2 S19)))
 (= X9 (+ (* X2 S18) (* X5 S19)))
 (= X9 (- (* X2 S18) (* X5 S19)))
 (= X9 (- (* X5 S18) (* X2 S19)))
 (= X9 (+ (* X2 S18) (* X6 S19)))
 (= X9 (- (* X2 S18) (* X6 S19)))
 (= X9 (- (* X6 S18) (* X2 S19)))
 (= X9 (+ (* X2 S18) (* X7 S19)))
 (= X9 (- (* X2 S18) (* X7 S19)))
 (= X9 (- (* X7 S18) (* X2 S19)))
 (= X9 (+ (* X2 S18) (* X8 S19)))
 (= X9 (- (* X2 S18) (* X8 S19)))
 (= X9 (- (* X8 S18) (* X2 S19)))
 (= X9 (+ (* X3 S18) S19))
 (= X9 (- (* X3 S18) S19))
 (= X9 (- S18 (* X3 S19)))
 (= X9 (+ (* X3 S18) (* X3 S19)))
 (= X9 (- (* X3 S18) (* X3 S19)))
 (= X9 (+ (* X3 S18) (* X4 S19)))
 (= X9 (- (* X3 S18) (* X4 S19)))
 (= X9 (- (* X4 S18) (* X3 S19)))
 (= X9 (+ (* X3 S18) (* X5 S19)))
 (= X9 (- (* X3 S18) (* X5 S19)))
 (= X9 (- (* X5 S18) (* X3 S19)))
 (= X9 (+ (* X3 S18) (* X6 S19)))
 (= X9 (- (* X3 S18) (* X6 S19)))
 (= X9 (- (* X6 S18) (* X3 S19)))
 (= X9 (+ (* X3 S18) (* X7 S19)))
 (= X9 (- (* X3 S18) (* X7 S19)))
 (= X9 (- (* X7 S18) (* X3 S19)))
 (= X9 (+ (* X3 S18) (* X8 S19)))
 (= X9 (- (* X3 S18) (* X8 S19)))
 (= X9 (- (* X8 S18) (* X3 S19)))
 (= X9 (+ (* X4 S18) S19))
 (= X9 (- (* X4 S18) S19))
 (= X9 (- S18 (* X4 S19)))
 (= X9 (+ (* X4 S18) (* X4 S19)))
 (= X9 (- (* X4 S18) (* X4 S19)))
 (= X9 (+ (* X4 S18) (* X5 S19)))
 (= X9 (- (* X4 S18) (* X5 S19)))
 (= X9 (- (* X5 S18) (* X4 S19)))
 (= X9 (+ (* X4 S18) (* X6 S19)))
 (= X9 (- (* X4 S18) (* X6 S19)))
 (= X9 (- (* X6 S18) (* X4 S19)))
 (= X9 (+ (* X4 S18) (* X7 S19)))
 (= X9 (- (* X4 S18) (* X7 S19)))
 (= X9 (- (* X7 S18) (* X4 S19)))
 (= X9 (+ (* X4 S18) (* X8 S19)))
 (= X9 (- (* X4 S18) (* X8 S19)))
 (= X9 (- (* X8 S18) (* X4 S19)))
 (= X9 (+ (* X5 S18) S19))
 (= X9 (- (* X5 S18) S19))
 (= X9 (- S18 (* X5 S19)))
 (= X9 (+ (* X5 S18) (* X5 S19)))
 (= X9 (- (* X5 S18) (* X5 S19)))
 (= X9 (+ (* X5 S18) (* X6 S19)))
 (= X9 (- (* X5 S18) (* X6 S19)))
 (= X9 (- (* X6 S18) (* X5 S19)))
 (= X9 (+ (* X5 S18) (* X7 S19)))
 (= X9 (- (* X5 S18) (* X7 S19)))
 (= X9 (- (* X7 S18) (* X5 S19)))
 (= X9 (+ (* X5 S18) (* X8 S19)))
 (= X9 (- (* X5 S18) (* X8 S19)))
 (= X9 (- (* X8 S18) (* X5 S19)))
 (= X9 (+ (* X6 S18) S19))
 (= X9 (- (* X6 S18) S19))
 (= X9 (- S18 (* X6 S19)))
 (= X9 (+ (* X6 S18) (* X6 S19)))
 (= X9 (- (* X6 S18) (* X6 S19)))
 (= X9 (+ (* X6 S18) (* X7 S19)))
 (= X9 (- (* X6 S18) (* X7 S19)))
 (= X9 (- (* X7 S18) (* X6 S19)))
 (= X9 (+ (* X6 S18) (* X8 S19)))
 (= X9 (- (* X6 S18) (* X8 S19)))
 (= X9 (- (* X8 S18) (* X6 S19)))
 (= X9 (+ (* X7 S18) S19))
 (= X9 (- (* X7 S18) S19))
 (= X9 (- S18 (* X7 S19)))
 (= X9 (+ (* X7 S18) (* X7 S19)))
 (= X9 (- (* X7 S18) (* X7 S19)))
 (= X9 (+ (* X7 S18) (* X8 S19)))
 (= X9 (- (* X7 S18) (* X8 S19)))
 (= X9 (- (* X8 S18) (* X7 S19)))
 (= X9 (+ (* X8 S18) S19))
 (= X9 (- (* X8 S18) S19))
 (= X9 (- S18 (* X8 S19)))
 (= X9 (+ (* X8 S18) (* X8 S19)))
 (= X9 (- (* X8 S18) (* X8 S19)))
))
(assert (and (> X9 0) (< X9 2048) (power2 S18) (power2 S19)))
(assert (or
 (= X10 (+ (* X0 S20) S21))
 (= X10 (- (* X0 S20) S21))
 (= X10 (- S20 (* X0 S21)))
 (= X10 (+ (* X0 S20) (* X0 S21)))
 (= X10 (- (* X0 S20) (* X0 S21)))
 (= X10 (+ (* X0 S20) (* X1 S21)))
 (= X10 (- (* X0 S20) (* X1 S21)))
 (= X10 (- (* X1 S20) (* X0 S21)))
 (= X10 (+ (* X0 S20) (* X2 S21)))
 (= X10 (- (* X0 S20) (* X2 S21)))
 (= X10 (- (* X2 S20) (* X0 S21)))
 (= X10 (+ (* X0 S20) (* X3 S21)))
 (= X10 (- (* X0 S20) (* X3 S21)))
 (= X10 (- (* X3 S20) (* X0 S21)))
 (= X10 (+ (* X0 S20) (* X4 S21)))
 (= X10 (- (* X0 S20) (* X4 S21)))
 (= X10 (- (* X4 S20) (* X0 S21)))
 (= X10 (+ (* X0 S20) (* X5 S21)))
 (= X10 (- (* X0 S20) (* X5 S21)))
 (= X10 (- (* X5 S20) (* X0 S21)))
 (= X10 (+ (* X0 S20) (* X6 S21)))
 (= X10 (- (* X0 S20) (* X6 S21)))
 (= X10 (- (* X6 S20) (* X0 S21)))
 (= X10 (+ (* X0 S20) (* X7 S21)))
 (= X10 (- (* X0 S20) (* X7 S21)))
 (= X10 (- (* X7 S20) (* X0 S21)))
 (= X10 (+ (* X0 S20) (* X8 S21)))
 (= X10 (- (* X0 S20) (* X8 S21)))
 (= X10 (- (* X8 S20) (* X0 S21)))
 (= X10 (+ (* X0 S20) (* X9 S21)))
 (= X10 (- (* X0 S20) (* X9 S21)))
 (= X10 (- (* X9 S20) (* X0 S21)))
 (= X10 (+ (* X1 S20) S21))
 (= X10 (- (* X1 S20) S21))
 (= X10 (- S20 (* X1 S21)))
 (= X10 (+ (* X1 S20) (* X1 S21)))
 (= X10 (- (* X1 S20) (* X1 S21)))
 (= X10 (+ (* X1 S20) (* X2 S21)))
 (= X10 (- (* X1 S20) (* X2 S21)))
 (= X10 (- (* X2 S20) (* X1 S21)))
 (= X10 (+ (* X1 S20) (* X3 S21)))
 (= X10 (- (* X1 S20) (* X3 S21)))
 (= X10 (- (* X3 S20) (* X1 S21)))
 (= X10 (+ (* X1 S20) (* X4 S21)))
 (= X10 (- (* X1 S20) (* X4 S21)))
 (= X10 (- (* X4 S20) (* X1 S21)))
 (= X10 (+ (* X1 S20) (* X5 S21)))
 (= X10 (- (* X1 S20) (* X5 S21)))
 (= X10 (- (* X5 S20) (* X1 S21)))
 (= X10 (+ (* X1 S20) (* X6 S21)))
 (= X10 (- (* X1 S20) (* X6 S21)))
 (= X10 (- (* X6 S20) (* X1 S21)))
 (= X10 (+ (* X1 S20) (* X7 S21)))
 (= X10 (- (* X1 S20) (* X7 S21)))
 (= X10 (- (* X7 S20) (* X1 S21)))
 (= X10 (+ (* X1 S20) (* X8 S21)))
 (= X10 (- (* X1 S20) (* X8 S21)))
 (= X10 (- (* X8 S20) (* X1 S21)))
 (= X10 (+ (* X1 S20) (* X9 S21)))
 (= X10 (- (* X1 S20) (* X9 S21)))
 (= X10 (- (* X9 S20) (* X1 S21)))
 (= X10 (+ (* X2 S20) S21))
 (= X10 (- (* X2 S20) S21))
 (= X10 (- S20 (* X2 S21)))
 (= X10 (+ (* X2 S20) (* X2 S21)))
 (= X10 (- (* X2 S20) (* X2 S21)))
 (= X10 (+ (* X2 S20) (* X3 S21)))
 (= X10 (- (* X2 S20) (* X3 S21)))
 (= X10 (- (* X3 S20) (* X2 S21)))
 (= X10 (+ (* X2 S20) (* X4 S21)))
 (= X10 (- (* X2 S20) (* X4 S21)))
 (= X10 (- (* X4 S20) (* X2 S21)))
 (= X10 (+ (* X2 S20) (* X5 S21)))
 (= X10 (- (* X2 S20) (* X5 S21)))
 (= X10 (- (* X5 S20) (* X2 S21)))
 (= X10 (+ (* X2 S20) (* X6 S21)))
 (= X10 (- (* X2 S20) (* X6 S21)))
 (= X10 (- (* X6 S20) (* X2 S21)))
 (= X10 (+ (* X2 S20) (* X7 S21)))
 (= X10 (- (* X2 S20) (* X7 S21)))
 (= X10 (- (* X7 S20) (* X2 S21)))
 (= X10 (+ (* X2 S20) (* X8 S21)))
 (= X10 (- (* X2 S20) (* X8 S21)))
 (= X10 (- (* X8 S20) (* X2 S21)))
 (= X10 (+ (* X2 S20) (* X9 S21)))
 (= X10 (- (* X2 S20) (* X9 S21)))
 (= X10 (- (* X9 S20) (* X2 S21)))
 (= X10 (+ (* X3 S20) S21))
 (= X10 (- (* X3 S20) S21))
 (= X10 (- S20 (* X3 S21)))
 (= X10 (+ (* X3 S20) (* X3 S21)))
 (= X10 (- (* X3 S20) (* X3 S21)))
 (= X10 (+ (* X3 S20) (* X4 S21)))
 (= X10 (- (* X3 S20) (* X4 S21)))
 (= X10 (- (* X4 S20) (* X3 S21)))
 (= X10 (+ (* X3 S20) (* X5 S21)))
 (= X10 (- (* X3 S20) (* X5 S21)))
 (= X10 (- (* X5 S20) (* X3 S21)))
 (= X10 (+ (* X3 S20) (* X6 S21)))
 (= X10 (- (* X3 S20) (* X6 S21)))
 (= X10 (- (* X6 S20) (* X3 S21)))
 (= X10 (+ (* X3 S20) (* X7 S21)))
 (= X10 (- (* X3 S20) (* X7 S21)))
 (= X10 (- (* X7 S20) (* X3 S21)))
 (= X10 (+ (* X3 S20) (* X8 S21)))
 (= X10 (- (* X3 S20) (* X8 S21)))
 (= X10 (- (* X8 S20) (* X3 S21)))
 (= X10 (+ (* X3 S20) (* X9 S21)))
 (= X10 (- (* X3 S20) (* X9 S21)))
 (= X10 (- (* X9 S20) (* X3 S21)))
 (= X10 (+ (* X4 S20) S21))
 (= X10 (- (* X4 S20) S21))
 (= X10 (- S20 (* X4 S21)))
 (= X10 (+ (* X4 S20) (* X4 S21)))
 (= X10 (- (* X4 S20) (* X4 S21)))
 (= X10 (+ (* X4 S20) (* X5 S21)))
 (= X10 (- (* X4 S20) (* X5 S21)))
 (= X10 (- (* X5 S20) (* X4 S21)))
 (= X10 (+ (* X4 S20) (* X6 S21)))
 (= X10 (- (* X4 S20) (* X6 S21)))
 (= X10 (- (* X6 S20) (* X4 S21)))
 (= X10 (+ (* X4 S20) (* X7 S21)))
 (= X10 (- (* X4 S20) (* X7 S21)))
 (= X10 (- (* X7 S20) (* X4 S21)))
 (= X10 (+ (* X4 S20) (* X8 S21)))
 (= X10 (- (* X4 S20) (* X8 S21)))
 (= X10 (- (* X8 S20) (* X4 S21)))
 (= X10 (+ (* X4 S20) (* X9 S21)))
 (= X10 (- (* X4 S20) (* X9 S21)))
 (= X10 (- (* X9 S20) (* X4 S21)))
 (= X10 (+ (* X5 S20) S21))
 (= X10 (- (* X5 S20) S21))
 (= X10 (- S20 (* X5 S21)))
 (= X10 (+ (* X5 S20) (* X5 S21)))
 (= X10 (- (* X5 S20) (* X5 S21)))
 (= X10 (+ (* X5 S20) (* X6 S21)))
 (= X10 (- (* X5 S20) (* X6 S21)))
 (= X10 (- (* X6 S20) (* X5 S21)))
 (= X10 (+ (* X5 S20) (* X7 S21)))
 (= X10 (- (* X5 S20) (* X7 S21)))
 (= X10 (- (* X7 S20) (* X5 S21)))
 (= X10 (+ (* X5 S20) (* X8 S21)))
 (= X10 (- (* X5 S20) (* X8 S21)))
 (= X10 (- (* X8 S20) (* X5 S21)))
 (= X10 (+ (* X5 S20) (* X9 S21)))
 (= X10 (- (* X5 S20) (* X9 S21)))
 (= X10 (- (* X9 S20) (* X5 S21)))
 (= X10 (+ (* X6 S20) S21))
 (= X10 (- (* X6 S20) S21))
 (= X10 (- S20 (* X6 S21)))
 (= X10 (+ (* X6 S20) (* X6 S21)))
 (= X10 (- (* X6 S20) (* X6 S21)))
 (= X10 (+ (* X6 S20) (* X7 S21)))
 (= X10 (- (* X6 S20) (* X7 S21)))
 (= X10 (- (* X7 S20) (* X6 S21)))
 (= X10 (+ (* X6 S20) (* X8 S21)))
 (= X10 (- (* X6 S20) (* X8 S21)))
 (= X10 (- (* X8 S20) (* X6 S21)))
 (= X10 (+ (* X6 S20) (* X9 S21)))
 (= X10 (- (* X6 S20) (* X9 S21)))
 (= X10 (- (* X9 S20) (* X6 S21)))
 (= X10 (+ (* X7 S20) S21))
 (= X10 (- (* X7 S20) S21))
 (= X10 (- S20 (* X7 S21)))
 (= X10 (+ (* X7 S20) (* X7 S21)))
 (= X10 (- (* X7 S20) (* X7 S21)))
 (= X10 (+ (* X7 S20) (* X8 S21)))
 (= X10 (- (* X7 S20) (* X8 S21)))
 (= X10 (- (* X8 S20) (* X7 S21)))
 (= X10 (+ (* X7 S20) (* X9 S21)))
 (= X10 (- (* X7 S20) (* X9 S21)))
 (= X10 (- (* X9 S20) (* X7 S21)))
 (= X10 (+ (* X8 S20) S21))
 (= X10 (- (* X8 S20) S21))
 (= X10 (- S20 (* X8 S21)))
 (= X10 (+ (* X8 S20) (* X8 S21)))
 (= X10 (- (* X8 S20) (* X8 S21)))
 (= X10 (+ (* X8 S20) (* X9 S21)))
 (= X10 (- (* X8 S20) (* X9 S21)))
 (= X10 (- (* X9 S20) (* X8 S21)))
 (= X10 (+ (* X9 S20) S21))
 (= X10 (- (* X9 S20) S21))
 (= X10 (- S20 (* X9 S21)))
 (= X10 (+ (* X9 S20) (* X9 S21)))
 (= X10 (- (* X9 S20) (* X9 S21)))
))
(assert (and (> X10 0) (< X10 2048) (power2 S20) (power2 S21)))
(assert (or
 (= X1 107)
 (= X2 107)
 (= X3 107)
 (= X4 107)
 (= X5 107)
 (= X6 107)
 (= X7 107)
 (= X8 107)
 (= X9 107)
 (= X10 107)
))
(assert (or
 (= X1 431)
 (= X2 431)
 (= X3 431)
 (= X4 431)
 (= X5 431)
 (= X6 431)
 (= X7 431)
 (= X8 431)
 (= X9 431)
 (= X10 431)
))
(assert (or
 (= X1 121)
 (= X2 121)
 (= X3 121)
 (= X4 121)
 (= X5 121)
 (= X6 121)
 (= X7 121)
 (= X8 121)
 (= X9 121)
 (= X10 121)
))
(assert (or
 (= X1 145)
 (= X2 145)
 (= X3 145)
 (= X4 145)
 (= X5 145)
 (= X6 145)
 (= X7 145)
 (= X8 145)
 (= X9 145)
 (= X10 145)
))
(assert (or
 (= X1 73)
 (= X2 73)
 (= X3 73)
 (= X4 73)
 (= X5 73)
 (= X6 73)
 (= X7 73)
 (= X8 73)
 (= X9 73)
 (= X10 73)
))
(assert (or
 (= X1 213)
 (= X2 213)
 (= X3 213)
 (= X4 213)
 (= X5 213)
 (= X6 213)
 (= X7 213)
 (= X8 213)
 (= X9 213)
 (= X10 213)
))
(assert (or
 (= X1 649)
 (= X2 649)
 (= X3 649)
 (= X4 649)
 (= X5 649)
 (= X6 649)
 (= X7 649)
 (= X8 649)
 (= X9 649)
 (= X10 649)
))
(assert (or
 (= X1 953)
 (= X2 953)
 (= X3 953)
 (= X4 953)
 (= X5 953)
 (= X6 953)
 (= X7 953)
 (= X8 953)
 (= X9 953)
 (= X10 953)
))
(assert (or
 (= X1 657)
 (= X2 657)
 (= X3 657)
 (= X4 657)
 (= X5 657)
 (= X6 657)
 (= X7 657)
 (= X8 657)
 (= X9 657)
 (= X10 657)
))
(assert (or
 (= X1 499)
 (= X2 499)
 (= X3 499)
 (= X4 499)
 (= X5 499)
 (= X6 499)
 (= X7 499)
 (= X8 499)
 (= X9 499)
 (= X10 499)
))
(check-sat)
(exit)
